NAME : bier127.72418.tour
COMMENT : Length = 72418
COMMENT : Found by LKH [Keld Helsgaun] Wed May 29 17:05:40 2013
TYPE : TOUR
DIMENSION : 26
TOUR_SECTION
121
57
48
111
107
127
98
97
123
28
26
80
76
75
126
82
102
63
119
87
85
104
92
89
65
66
-1
EOF
